(set-logic QF_FPBV)
(set-option :produce-models true)
(set-info :source |Random FP created by PyMPF|)
(set-info :category random)
(set-info :status sat)
;; fp.from.ubv(BitVec 32)
(declare-const x (_ BitVec 32))
(assert (bvuge x #b10010101001001011000001000000110))
;; x should be 2502263302
(declare-const r Float64)
(assert (= r ((_ to_fp_unsigned 11 53) RNE x)))
(assert (fp.geq r (fp #b0 #b10000011110 #b0010101001001011000001000000110000000000000000000000)))
(check-sat)
(exit)
